\* LP *\
Minimize
OBJ: 0.608117699318 a_0 + 0.173947854217 a_1 + 0.385147751953 a_10
 + 0.521397222272 a_11 + 0.592984741407 a_12 + 0.294512996605 a_13
 + 0.476552574207 a_14 + 0.246477370902 a_15 + 0.477833069045 a_16
 + 0.0809911644205 a_17 + 0.0498884745469 a_18 + 0.143720070929 a_19
 + 0.977203443818 a_2 + 0.614414612616 a_20 + 0.551457316737 a_21
 + 0.412503701678 a_22 + 0.868851275537 a_23 + 0.186463652137 a_24
 + 0.317944354182 a_25 + 0.0647672497156 a_26 + 0.0442902924275 a_27
 + 0.309384285301 a_28 + 0.0524203313368 a_29 + 0.133784197695 a_3
 + 0.458085766869 a_30 + 0.196418564704 a_31 + 0.839667250899 a_32
 + 0.0273539565883 a_33 + a_34 + 0.542823746324 a_35 + 0.358033808068 a_36
 + 0.237705441415 a_37 + 0.024811830966 a_38 + 0.545971400121 a_39
 + 0.981570739256 a_4 + 0.469053290108 a_40 + 0.6252968006 a_41
 + 0.812803929863 a_42 + 0.369671687744 a_43 + 0.732047989434 a_44
 + 0.338737969588 a_45 + 0.759575558904 a_46 + 0.0814665415116 a_47
 + 0.454759576617 a_48 + 0.0479366330259 a_49 + 0.607529372558 a_5
 + 0.226075387844 a_6 + 0.180949796594 a_7 + 0.0928654569638 a_8
 + 0.544944597955 a_9
Subject To
c_0_neg: a_0 - 6.28318530718 k_0 + p >= 0
c_0_pos: a_0 + 6.28318530718 k_0 - p >= 0
c_10_neg: a_10 + 0.782478985827 f - 3.91239492913 k_10 + 0.622676992299 p
 >= -1.95619746457
c_10_pos: a_10 - 0.782478985827 f + 3.91239492913 k_10 - 0.622676992299 p
 >= 1.95619746457
c_11_neg: a_11 + 0.810213905064 f - 3.68279047756 k_11 + 0.586134308876 p
 >= -1.84139523878
c_11_pos: a_11 - 0.810213905064 f + 3.68279047756 k_11 - 0.586134308876 p
 >= 1.84139523878
c_12_neg: a_12 + 0.833402183942 f - 3.47250909976 k_12 + 0.552666988158 p >= 0
c_12_pos: a_12 - 0.833402183942 f + 3.47250909976 k_12 - 0.552666988158 p >= 0
c_13_neg: a_13 + 0.852893270888 f - 3.28035873418 k_13 + 0.52208530766 p >= 0
c_13_pos: a_13 - 0.852893270888 f + 3.28035873418 k_13 - 0.52208530766 p >= 0
c_14_neg: a_14 + 0.869371147732 f - 3.10489695619 k_14 + 0.494159698368 p
 >= -1.55244847809
c_14_pos: a_14 - 0.869371147732 f + 3.10489695619 k_14 - 0.494159698368 p
 >= 1.55244847809
c_15_neg: a_15 + 0.883384045923 f - 2.94461348641 k_15 + 0.468649791857 p
 >= -1.47230674321
c_15_pos: a_15 - 0.883384045923 f + 2.94461348641 k_15 - 0.468649791857 p
 >= 1.47230674321
c_16_neg: a_16 + 0.895370990054 f - 2.79803434392 k_16 + 0.445320996776 p >= 0
c_16_pos: a_16 - 0.895370990054 f + 2.79803434392 k_16 - 0.445320996776 p >= 0
c_17_neg: a_17 + 0.905684082707 f - 2.66377671384 k_17 + 0.423953231301 p
 >= -1.33188835692
c_17_pos: a_17 - 0.905684082707 f + 2.66377671384 k_17 - 0.423953231301 p
 >= 1.33188835692
c_18_neg: a_18 + 0.914606588557 f - 2.5405738571 k_18 + 0.404344887648 p
 >= -1.27028692855
c_18_pos: a_18 - 0.914606588557 f + 2.5405738571 k_18 - 0.404344887648 p
 >= 1.27028692855
c_19_neg: a_19 + 0.922367330979 f - 2.42728244995 k_19 + 0.386314000189 p >= 0
c_19_pos: a_19 - 0.922367330979 f + 2.42728244995 k_19 - 0.386314000189 p >= 0
c_1_neg: a_1 + 0.124683103913 f - 6.23415519567 k_1 + 0.992196615394 p >= 0
c_1_pos: a_1 - 0.124683103913 f + 6.23415519567 k_1 - 0.992196615394 p >= 0
c_20_neg: a_20 + 0.929152033578 f - 2.32288008395 k_20 + 0.36969784757 p
 >= -1.16144004197
c_20_pos: a_20 - 0.929152033578 f + 2.32288008395 k_20 - 0.36969784757 p
 >= 1.16144004197
c_21_neg: a_21 + 0.935112209748 f - 2.22645764226 k_21 + 0.35435173935 p >= 0
c_21_pos: a_21 - 0.935112209748 f + 2.22645764226 k_21 - 0.35435173935 p >= 0
c_22_neg: a_22 + 0.940372119356 f - 2.13720936217 k_22 + 0.340147434412 p >= 0
c_22_pos: a_22 - 0.940372119356 f + 2.13720936217 k_22 - 0.340147434412 p >= 0
c_23_neg: a_23 + 0.945034216786 f - 2.0544222104 k_23 + 0.326971449984 p
 >= -1.0272111052
c_23_pos: a_23 - 0.945034216786 f + 2.0544222104 k_23 - 0.326971449984 p
 >= 1.0272111052
c_24_neg: a_24 + 0.949183427178 f - 1.97746547329 k_24 + 0.314723404867 p >= 0
c_24_pos: a_24 - 0.949183427178 f + 1.97746547329 k_24 - 0.314723404867 p >= 0
c_25_neg: a_25 + 0.952890513989 f - 1.90578102798 k_25 + 0.303314471053 p >= 0
c_25_pos: a_25 - 0.952890513989 f + 1.90578102798 k_25 - 0.303314471053 p >= 0
c_26_neg: a_26 + 0.956214741491 f - 1.83887450287 k_26 + 0.292665966857 p
 >= -0.919437251433
c_26_pos: a_26 - 0.956214741491 f + 1.83887450287 k_26 - 0.292665966857 p
 >= 0.919437251433
c_27_neg: a_27 + 0.959205989115 f - 1.77630738725 k_27 + 0.282708101132 p >= 0
c_27_pos: a_27 - 0.959205989115 f + 1.77630738725 k_27 - 0.282708101132 p >= 0
c_28_neg: a_28 + 0.961906438339 f - 1.71769006846 k_28 + 0.273378865096 p
 >= -0.858845034232
c_28_pos: a_28 - 0.961906438339 f + 1.71769006846 k_28 - 0.273378865096 p
 >= 0.858845034232
c_29_neg: a_29 + 0.964351925002 f - 1.66267573276 k_29 + 0.264623061628 p
 >= -0.831337866381
c_29_pos: a_29 - 0.964351925002 f + 1.66267573276 k_29 - 0.264623061628 p
 >= 0.831337866381
c_2_neg: a_2 + 0.24374708386 f - 6.09367709649 k_2 + 0.969838831513 p
 >= -3.04683854825
c_2_pos: a_2 - 0.24374708386 f + 6.09367709649 k_2 - 0.969838831513 p
 >= 3.04683854825
c_30_neg: a_30 + 0.966573028681 f - 1.6109550478 k_30 + 0.256391458957 p >= 0
c_30_pos: a_30 - 0.966573028681 f + 1.6109550478 k_30 - 0.256391458957 p >= 0
c_31_neg: a_31 + 0.96859595452 f - 1.56225153955 k_31 + 0.248640054872 p >= 0
c_31_pos: a_31 - 0.96859595452 f + 1.56225153955 k_31 - 0.248640054872 p >= 0
c_32_neg: a_32 + 0.970443250463 f - 1.51631757885 k_32 + 0.241329437971 p
 >= -0.758158789424
c_32_pos: a_32 - 0.970443250463 f + 1.51631757885 k_32 - 0.241329437971 p
 >= 0.758158789424
c_33_neg: a_33 + 0.972134393377 f - 1.47293089906 k_33 + 0.234424233418 p >= 0
c_33_pos: a_33 - 0.972134393377 f + 1.47293089906 k_33 - 0.234424233418 p >= 0
c_34_neg: a_34 + 0.973686270242 f - 1.43189157389 k_34 + 0.227892621956 p >= 0
c_34_pos: a_34 - 0.973686270242 f + 1.43189157389 k_34 - 0.227892621956 p >= 0
c_35_neg: a_35 + 0.975113574958 f - 1.3930193928 k_35 + 0.221705922187 p
 >= -0.696509696399
c_35_pos: a_35 - 0.975113574958 f + 1.3930193928 k_35 - 0.221705922187 p
 >= 0.696509696399
c_36_neg: a_36 + 0.976429137004 f - 1.35615157917 k_36 + 0.215838227407 p
 >= -0.678075789586
c_36_pos: a_36 - 0.976429137004 f + 1.35615157917 k_36 - 0.215838227407 p
 >= 0.678075789586
c_37_neg: a_37 + 0.977644194802 f - 1.32114080379 k_37 + 0.210266089443 p >= 0
c_37_pos: a_37 - 0.977644194802 f + 1.32114080379 k_37 - 0.210266089443 p >= 0
c_38_neg: a_38 + 0.978768624024 f - 1.28785345266 k_38 + 0.204968242969 p
 >= -0.643926726332
c_38_pos: a_38 - 0.978768624024 f + 1.28785345266 k_38 - 0.204968242969 p
 >= 0.643926726332
c_39_neg: a_39 + 0.979811129016 f - 1.25616811412 k_39 + 0.199925364717 p >= 0
c_39_pos: a_39 - 0.979811129016 f + 1.25616811412 k_39 - 0.199925364717 p >= 0
c_3_neg: a_3 + 0.352756327426 f - 5.87927212376 k_3 + 0.935715220279 p >= 0
c_3_pos: a_3 - 0.352756327426 f + 5.87927212376 k_3 - 0.935715220279 p >= 0
c_40_neg: a_40 + 0.980779403919 f - 1.2259742549 k_40 + 0.195119862771 p
 >= -0.61298712745
c_40_pos: a_40 - 0.980779403919 f + 1.2259742549 k_40 - 0.195119862771 p
 >= 0.61298712745
c_41_neg: a_41 + 0.981680268791 f - 1.1971710595 k_41 + 0.190535691846 p
 >= -0.59858552975
c_41_pos: a_41 - 0.981680268791 f + 1.1971710595 k_41 - 0.190535691846 p
 >= 0.59858552975
c_42_neg: a_42 + 0.982519784997 f - 1.16966641071 k_42 + 0.186158191033 p >= 0
c_42_pos: a_42 - 0.982519784997 f + 1.16966641071 k_42 - 0.186158191033 p >= 0
c_43_neg: a_43 + 0.983303353396 f - 1.14337599232 k_43 + 0.181973940991 p >= 0
c_43_pos: a_43 - 0.983303353396 f + 1.14337599232 k_43 - 0.181973940991 p >= 0
c_44_neg: a_44 + 0.984035798132 f - 1.11822249788 k_44 + 0.177970638014 p
 >= -0.559111248939
c_44_pos: a_44 - 0.984035798132 f + 1.11822249788 k_44 - 0.177970638014 p
 >= 0.559111248939
c_45_neg: a_45 + 0.984721438394 f - 1.09413493155 k_45 + 0.174136982766 p
 >= -0.547067465775
c_45_pos: a_45 - 0.984721438394 f + 1.09413493155 k_45 - 0.174136982766 p
 >= 0.547067465775
c_46_neg: a_46 + 0.985364150057 f - 1.07104798919 k_46 + 0.170462581769 p >= 0
c_46_pos: a_46 - 0.985364150057 f + 1.07104798919 k_46 - 0.170462581769 p >= 0
c_47_neg: a_47 + 0.985967418777 f - 1.04890150934 k_47 + 0.166937860028 p >= 0
c_47_pos: a_47 - 0.985967418777 f + 1.04890150934 k_47 - 0.166937860028 p >= 0
c_48_neg: a_48 + 0.986534385879 f - 1.02763998529 k_48 + 0.163553983378 p
 >= -0.513819992645
c_48_pos: a_48 - 0.986534385879 f + 1.02763998529 k_48 - 0.163553983378 p
 >= 0.513819992645
c_49_neg: a_49 + 0.987067888105 f - 1.00721213072 k_49 + 0.160302789346 p >= 0
c_49_pos: a_49 - 0.987067888105 f + 1.00721213072 k_49 - 0.160302789346 p >= 0
c_4_neg: a_4 + 0.449110207418 f - 5.61387759272 k_4 + 0.893476368794 p >= 0
c_4_pos: a_4 - 0.449110207418 f + 5.61387759272 k_4 - 0.893476368794 p >= 0
c_5_neg: a_5 + 0.532018044501 f - 5.32018044501 k_5 + 0.846733015965 p
 >= -2.66009022251
c_5_pos: a_5 - 0.532018044501 f + 5.32018044501 k_5 - 0.846733015965 p
 >= 2.66009022251
c_6_neg: a_6 + 0.602033067592 f - 5.01694222993 k_6 + 0.7984711551 p
 >= -2.50847111496
c_6_pos: a_6 - 0.602033067592 f + 5.01694222993 k_6 - 0.7984711551 p
 >= 2.50847111496
c_7_neg: a_7 + 0.660478060926 f - 4.71770043518 k_7 + 0.750845344286 p >= 0
c_7_pos: a_7 - 0.660478060926 f + 4.71770043518 k_7 - 0.750845344286 p >= 0
c_8_neg: a_8 + 0.708976569838 f - 4.43110356149 k_8 + 0.705232035163 p
 >= -2.21555178074
c_8_pos: a_8 - 0.708976569838 f + 4.43110356149 k_8 - 0.705232035163 p
 >= 2.21555178074
c_9_neg: a_9 + 0.749153155785 f - 4.16196197658 k_9 + 0.662396821534 p >= 0
c_9_pos: a_9 - 0.749153155785 f + 4.16196197658 k_9 - 0.662396821534 p >= 0
Bounds
a_0 <= 1
a_1 <= 2
a_10 <= 11
a_11 <= 12
a_12 <= 13
a_13 <= 14
a_14 <= 15
a_15 <= 16
a_16 <= 17
a_17 <= 18
a_18 <= 19
a_19 <= 20
a_2 <= 3
a_20 <= 21
a_21 <= 22
a_22 <= 23
a_23 <= 24
a_24 <= 25
a_25 <= 26
a_26 <= 27
a_27 <= 28
a_28 <= 29
a_29 <= 30
a_3 <= 4
a_30 <= 31
a_31 <= 32
a_32 <= 33
a_33 <= 34
a_34 <= 35
a_35 <= 36
a_36 <= 37
a_37 <= 38
a_38 <= 39
a_39 <= 40
a_4 <= 5
a_40 <= 41
a_41 <= 42
a_42 <= 43
a_43 <= 44
a_44 <= 45
a_45 <= 46
a_46 <= 47
a_47 <= 48
a_48 <= 49
a_49 <= 50
a_5 <= 6
a_6 <= 7
a_7 <= 8
a_8 <= 9
a_9 <= 10
f <= 25
0 <= k_1 <= 2
0 <= k_10 <= 11
0 <= k_11 <= 12
0 <= k_12 <= 13
0 <= k_13 <= 14
0 <= k_14 <= 15
0 <= k_15 <= 16
0 <= k_16 <= 17
0 <= k_17 <= 18
0 <= k_18 <= 19
0 <= k_19 <= 20
0 <= k_2 <= 3
0 <= k_20 <= 21
0 <= k_21 <= 22
0 <= k_22 <= 23
0 <= k_23 <= 24
0 <= k_24 <= 25
0 <= k_25 <= 26
0 <= k_26 <= 27
0 <= k_27 <= 28
0 <= k_28 <= 29
0 <= k_29 <= 30
0 <= k_3 <= 4
0 <= k_30 <= 31
0 <= k_31 <= 32
0 <= k_32 <= 33
0 <= k_33 <= 34
0 <= k_34 <= 35
0 <= k_35 <= 36
0 <= k_36 <= 37
0 <= k_37 <= 38
0 <= k_38 <= 39
0 <= k_39 <= 40
0 <= k_4 <= 5
0 <= k_40 <= 41
0 <= k_41 <= 42
0 <= k_42 <= 43
0 <= k_43 <= 44
0 <= k_44 <= 45
0 <= k_45 <= 46
0 <= k_46 <= 47
0 <= k_47 <= 48
0 <= k_48 <= 49
0 <= k_49 <= 50
0 <= k_5 <= 6
0 <= k_6 <= 7
0 <= k_7 <= 8
0 <= k_8 <= 9
0 <= k_9 <= 10
p <= 6.28318530718
Generals
k_1
k_10
k_11
k_12
k_13
k_14
k_15
k_16
k_17
k_18
k_19
k_2
k_20
k_21
k_22
k_23
k_24
k_25
k_26
k_27
k_28
k_29
k_3
k_30
k_31
k_32
k_33
k_34
k_35
k_36
k_37
k_38
k_39
k_4
k_40
k_41
k_42
k_43
k_44
k_45
k_46
k_47
k_48
k_49
k_5
k_6
k_7
k_8
k_9
Binaries
k_0
End
